(set-logic ALL)
(set-option :incremental true)
(set-option :produce-models true)


(declare-fun |stdin0| () String)
(declare-fun |fread0| () Int)
(declare-fun |ite0| () Int)
(declare-fun |ite1| () Int)
(declare-fun |ite2| () Int)
(declare-fun |ite3| () Int)
(declare-fun |ite4| () Int)
(declare-fun |ite5| () Int)
(declare-fun |ite6| () Int)
(declare-fun |ite7| () Int)
(declare-fun |ite8| () Int)
(declare-fun |ite9| () Int)

(assert (>= fread0 0))
(assert (not (>= fread0 59)))
(assert (= fread0 (str.len (str.substr stdin0 0 fread0))))
(assert (= fread0 (str.len (str.substr stdin0 0 58))))
(assert (not (>= fread0 60)))
(assert (not (>= (str.to_code (str.substr (str.substr stdin0 0 fread0) 0 1)) 256)))
(assert (not (= (str.to_code (str.substr (str.substr stdin0 0 fread0) 0 1)) 0)))
(assert (not (>= (str.to_code (str.substr (str.substr stdin0 0 fread0) 0 1)) 256)))
(assert (not (= (str.to_code (str.substr (str.substr stdin0 0 fread0) 0 1)) 0)))
(assert (= ite0 (ite (>= (str.to_code (str.substr (str.substr stdin0 0 fread0) 0 1)) 128) (+ 4294967040 (str.to_code (str.substr (str.substr stdin0 0 fread0) 0 1))) (str.to_code (str.substr (str.substr stdin0 0 fread0) 0 1)))))
(assert (not (= ite0 10)))
(assert (not (= ite0 44)))
(assert (not (= ite0 34)))
(assert (not (= ite0 13)))
(assert (not (>= (str.to_code (str.substr (str.substr stdin0 0 fread0) 1 1)) 256)))
(assert (not (= (str.to_code (str.substr (str.substr stdin0 0 fread0) 1 1)) 0)))
(assert (= ite1 (ite (>= (str.to_code (str.substr (str.substr stdin0 0 fread0) 1 1)) 128) (+ 4294967040 (str.to_code (str.substr (str.substr stdin0 0 fread0) 1 1))) (str.to_code (str.substr (str.substr stdin0 0 fread0) 1 1)))))
(assert (not (= ite1 10)))
(assert (not (= ite1 44)))
(assert (not (= ite1 34)))
(assert (not (= ite1 13)))
(assert (not (>= (str.to_code (str.substr (str.substr stdin0 0 fread0) 2 1)) 256)))
(assert (not (= (str.to_code (str.substr (str.substr stdin0 0 fread0) 2 1)) 0)))
(assert (= ite2 (ite (>= (str.to_code (str.substr (str.substr stdin0 0 fread0) 2 1)) 128) (+ 4294967040 (str.to_code (str.substr (str.substr stdin0 0 fread0) 2 1))) (str.to_code (str.substr (str.substr stdin0 0 fread0) 2 1)))))
(assert (not (= ite2 10)))
(assert (not (= ite2 44)))
(assert (not (= ite2 34)))
(assert (not (= ite2 13)))
(assert (not (>= (str.to_code (str.substr (str.substr stdin0 0 fread0) 3 1)) 256)))
(assert (not (= (str.to_code (str.substr (str.substr stdin0 0 fread0) 3 1)) 0)))
(assert (= ite3 (ite (>= (str.to_code (str.substr (str.substr stdin0 0 fread0) 3 1)) 128) (+ 4294967040 (str.to_code (str.substr (str.substr stdin0 0 fread0) 3 1))) (str.to_code (str.substr (str.substr stdin0 0 fread0) 3 1)))))
(assert (not (= ite3 10)))
(assert (not (= ite3 44)))
(assert (not (= ite3 34)))
(assert (not (= ite3 13)))
(assert (not (>= (str.to_code (str.substr (str.substr stdin0 0 fread0) 4 1)) 256)))
(assert (not (= (str.to_code (str.substr (str.substr stdin0 0 fread0) 4 1)) 0)))
(assert (= ite4 (ite (>= (str.to_code (str.substr (str.substr stdin0 0 fread0) 4 1)) 128) (+ 4294967040 (str.to_code (str.substr (str.substr stdin0 0 fread0) 4 1))) (str.to_code (str.substr (str.substr stdin0 0 fread0) 4 1)))))
(assert (not (= ite4 10)))
(assert (= ite4 44))
(assert (not (= ite4 34)))
(assert (not (= ite4 13)))
(assert (not (>= (str.to_code (str.substr (str.substr stdin0 5 (+ (- 5) fread0)) 0 1)) 256)))
(assert (not (= (str.to_code (str.substr (str.substr stdin0 5 (+ (- 5) fread0)) 0 1)) 0)))
(assert (= ite5 (ite (>= (str.to_code (str.substr (str.substr stdin0 5 (+ (- 5) fread0)) 0 1)) 128) (+ 4294967040 (str.to_code (str.substr (str.substr stdin0 5 (+ (- 5) fread0)) 0 1))) (str.to_code (str.substr (str.substr stdin0 5 (+ (- 5) fread0)) 0 1)))))
(assert (not (= ite5 10)))
(assert (not (= ite5 44)))
(assert (not (= ite5 34)))
(assert (not (= ite5 13)))
(assert (not (>= (str.to_code (str.substr (str.substr stdin0 5 (+ (- 5) fread0)) 1 1)) 256)))
(assert (not (= (str.to_code (str.substr (str.substr stdin0 5 (+ (- 5) fread0)) 1 1)) 0)))
(assert (= ite6 (ite (>= (str.to_code (str.substr (str.substr stdin0 5 (+ (- 5) fread0)) 1 1)) 128) (+ 4294967040 (str.to_code (str.substr (str.substr stdin0 5 (+ (- 5) fread0)) 1 1))) (str.to_code (str.substr (str.substr stdin0 5 (+ (- 5) fread0)) 1 1)))))
(assert (not (= ite6 10)))
(assert (not (= ite6 44)))
(assert (not (= ite6 34)))
(assert (not (= ite6 13)))
(assert (not (>= (str.to_code (str.substr (str.substr stdin0 5 (+ (- 5) fread0)) 2 1)) 256)))
(assert (not (= (str.to_code (str.substr (str.substr stdin0 5 (+ (- 5) fread0)) 2 1)) 0)))
(assert (= ite7 (ite (>= (str.to_code (str.substr (str.substr stdin0 5 (+ (- 5) fread0)) 2 1)) 128) (+ 4294967040 (str.to_code (str.substr (str.substr stdin0 5 (+ (- 5) fread0)) 2 1))) (str.to_code (str.substr (str.substr stdin0 5 (+ (- 5) fread0)) 2 1)))))
(assert (not (= ite7 10)))
(assert (not (= ite7 44)))
(assert (not (= ite7 34)))
(assert (not (= ite7 13)))
(assert (not (>= (str.to_code (str.substr (str.substr stdin0 5 (+ (- 5) fread0)) 3 1)) 256)))
(assert (not (= (str.to_code (str.substr (str.substr stdin0 5 (+ (- 5) fread0)) 3 1)) 0)))
(assert (= ite8 (ite (>= (str.to_code (str.substr (str.substr stdin0 5 (+ (- 5) fread0)) 3 1)) 128) (+ 4294967040 (str.to_code (str.substr (str.substr stdin0 5 (+ (- 5) fread0)) 3 1))) (str.to_code (str.substr (str.substr stdin0 5 (+ (- 5) fread0)) 3 1)))))
(assert (not (= ite8 10)))
(assert (= ite8 44))
(assert (not (= ite8 34)))
(assert (not (= ite8 13)))
(assert (not (>= (str.to_code (str.substr (str.substr stdin0 9 (+ (- 9) fread0)) 0 1)) 256)))
(assert (not (= (str.to_code (str.substr (str.substr stdin0 9 (+ (- 9) fread0)) 0 1)) 0)))
(assert (= ite9 (ite (>= (str.to_code (str.substr (str.substr stdin0 9 (+ (- 9) fread0)) 0 1)) 128) (+ 4294967040 (str.to_code (str.substr (str.substr stdin0 9 (+ (- 9) fread0)) 0 1))) (str.to_code (str.substr (str.substr stdin0 9 (+ (- 9) fread0)) 0 1)))))
(assert (not (= ite9 10)))

(check-sat)
